Route #1: 48 39 27
Route #2: 21 49 5
Route #3: 59 82 44
Route #4: 83 31 71 11
Route #5: 97 79 70
Route #6: 89 98 47 77 52
Route #7: 76 32 78
Route #8: 100 81 14
Route #9: 56 86 15
Route #10: 18 6 88 57
Route #11: 73 69
Route #12: 3 16 13
Route #13: 19 34 64 93 25
Route #14: 28 61 53 85 65
Route #15: 62 90 22 67
Route #16: 91 38 46 80
Route #17: 20 4 95
Route #18: 35 74 84 72 92 75
Route #19: 26 29 42 10 60
Route #20: 36 54 23 1
Route #21: 51 8 87 12 7
Route #22: 66 63 41
Route #23: 55 50 37 17
Route #24: 9 68 43 2 40
Route #25: 96 94 30 45 33
Route #26: 24 99 58
Cost 25764
